NAME : tsp50_24.228.tour
COMMENT : Length = 228
COMMENT : Found by LKH [Keld Helsgaun]
TYPE : TOUR
DIMENSION : 50
TOUR_SECTION
1
2
39
7
41
42
32
12
27
4
49
28
34
19
13
50
18
9
46
48
6
11
14
3
23
40
15
33
37
29
25
30
43
26
17
21
16
22
36
8
38
35
44
45
5
47
20
10
24
31
-1
EOF
